language ESSENCE' 1.0

letting boxes_PartitionAsSet_ExplicitR2_Occurrence be
        [[false, false, false, false, false, false, true; int(1..7)],
         [false, false, true, false, true, true, false; int(1..7)],
         [true, true, false, true, false, false, false; int(1..7)];
             int(1..3)]
$ Visualisation for boxes_PartitionAsSet_ExplicitR2_Occurrence
$ _ _ _ _ _ _ T
$ _ _ T _ T T _
$ T T _ T _ _ _

